4 10 18 15 6 0 11 8 9 14 19 12 5 7 13 2 17 1 16 3  
4 10 18 14 15 6 7 11 8 17 12 9 19 5 13 2 1 0 16 3  
4 10 18 14 6 7 11 8 17 12 0 15 5 9 19 1 2 13 16 3  
4 10 6 15 5 9 11 13 14 12 7 18 17 1 0 2 19 16 3 8  
4 10 18 15 14 6 7 11 8 17 12 9 19 5 13 2 1 0 16 3  
4 10 18 14 6 7 11 8 5 17 12 9 19 15 0 1 2 13 16 3  
4 10 18 15 0 8 6 14 11 17 12 9 19 5 13 16 7 1 2 3  
4 10 18 15 6 0 14 8 11 17 12 9 19 5 13 16 7 1 2 3  
4 10 18 15 6 0 14 8 11 17 12 9 19 5 2 13 16 7 1 3  
4 10 18 14 6 15 0 11 9 8 19 12 5 7 13 2 17 1 16 3  
4 10 18 14 6 15 0 8 11 12 5 9 13 17 1 7 2 19 16 3  
4 10 18 15 6 14 0 11 12 9 19 7 8 5 13 2 17 1 16 3  
4 10 18 14 6 15 0 8 11 7 12 9 19 5 13 2 16 17 1 3  
4 10 18 15 6 0 11 19 5 9 14 12 2 7 17 1 13 16 3 8  
4 10 18 14 6 15 7 11 8 17 12 9 19 5 0 2 1 13 16 3  
4 10 18 14 6 7 11 8 17 12 9 15 0 13 16 5 19 3 1 2  
4 10 18 15 6 14 5 9 8 19 12 17 11 7 2 1 0 13 16 3  
4 10 18 14 6 7 11 8 5 17 12 9 19 15 0 3 16 2 1 13  
4 10 18 15 0 8 14 6 11 17 12 9 19 16 5 2 7 3 1 13  
4 10 18 14 6 15 7 8 17 12 9 11 19 5 0 2 1 13 16 3  
4 10 18 14 6 11 0 8 15 17 12 9 1 5 19 2 13 16 7 3  
4 10 18 14 6 11 7 8 17 12 9 15 0 13 16 5 2 1 19 3  
4 10 18 15 0 8 14 6 11 17 12 9 19 5 2 7 1 13 3 16  
4 10 18 14 6 15 0 11 12 5 9 13 2 7 17 1 19 16 3 8  
4 10 18 15 0 14 6 11 12 7 5 9 13 8 17 1 2 19 16 3  
4 10 18 14 6 7 11 8 17 12 0 15 5 9 19 1 2 13 16 3  
4 10 18 14 6 15 0 1 17 12 11 5 9 19 8 2 7 13 16 3  
4 10 18 14 6 11 7 8 17 12 9 15 0 13 16 5 2 19 1 3  
4 10 18 14 6 15 17 8 12 5 9 11 19 13 16 7 0 1 2 3  
4 10 18 15 6 14 0 11 1 17 12 9 19 7 8 5 13 2 16 3  
4 10 18 14 6 15 7 5 12 9 19 11 8 0 17 1 2 13 16 3  
4 10 18 15 5 0 11 19 6 9 12 14 2 7 17 1 13 16 3 8  
4 10 18 14 6 7 11 8 5 17 12 9 13 15 0 2 1 19 16 3  
4 10 18 15 0 8 14 6 11 17 12 9 19 16 5 1 7 2 13 3  
4 10 18 15 0 14 6 11 12 5 9 7 19 2 17 1 13 16 3 8  
4 15 10 6 5 18 0 11 19 9 12 14 2 7 17 1 13 16 3 8  
4 10 18 15 7 8 14 6 11 17 12 9 19 16 5 2 0 3 1 13  
4 10 18 14 6 11 7 8 17 12 9 15 0 13 5 3 19 2 16 1  
4 10 18 14 6 11 5 8 17 12 9 15 0 13 16 7 2 1 19 3  
4 10 18 14 6 7 11 8 17 12 9 15 0 1 5 19 13 2 16 3  
4 10 18 14 6 11 7 8 17 12 9 15 0 13 16 5 2 19 1 3  
